100 2292
1161 83 258 83 498 903 830 83 1032 830 645 581 83 83 387 129 249 747 332 83 645 415 830 1032 516 498 415 1161 516 645 516 581 830 516 774 581 516 747 774 166 129 1161 516 664 830 1161 332 830 1290 830 258 830 498 166 581 1161 249 581 1290 498 581 415 258 664 664 258 415 581 498 498 258 1032 387 166 645 1290 258 664 830 258 387 332 664 581 645 903 774 903 83 774 415 747 903 664 387 1161 774 774 516 1032 
1251 69 278 69 414 973 690 69 1112 690 695 483 69 69 417 139 207 621 276 69 695 345 690 1112 556 414 345 1251 556 695 556 483 690 556 834 483 556 621 834 138 139 1251 556 552 690 1251 276 690 1390 690 278 690 414 138 483 1251 207 483 1390 414 483 345 278 552 552 278 345 483 414 414 278 1112 417 138 695 1390 278 552 690 278 417 276 552 483 695 973 834 973 69 834 345 621 973 552 417 1251 834 834 556 1112 
